1620211
48 2 7938
2 63 25131
63 16 14689
16 59 10880
59 36 8563
36 8 11459
8 15 6874
15 58 6904
58 9 1777
9 17 5356
17 27 1445
27 45 8214
45 68 50028
68 35 19070
35 51 8926
51 39 11004
39 62 8740
62 37 30446
37 53 6554
53 50 48925
50 28 10810
28 44 76431
44 14 62420
14 10 62052
10 18 28652
18 57 27906
57 33 88918
33 52 101509
52 22 46274
22 31 39447
31 43 116978
43 46 69394
46 34 36286
34 55 20835
55 26 61621
26 66 57991
66 11 13370
11 7 50738
7 38 28523
38 67 15200
67 64 14572
64 41 28668
41 30 5056
30 25 1249
25 6 11949
6 23 16175
23 49 4353
49 19 8895
19 60 15596
60 29 6419
29 5 9526
5 40 3130
40 56 3489
56 32 1427
32 42 5759
42 3 13084
3 21 17216
21 61 26988
61 24 5437
24 12 13443
12 1 10465
1 54 18207
54 13 13536
13 47 9114
47 4 12782
4 20 4440
20 65 13332
65 48 17626
